
Log started (V12.4.0.0) Thu Nov  3 18:08:16 2016


Problem 'teste.lp' read.
Read time =    0.11 sec.
Tried aggregator 2 times.
MIP Presolve eliminated 0 rows and 1 columns.
Aggregator did 1083 substitutions.
Reduced MIP has 22 rows, 57 columns, and 114 nonzeros.
Reduced MIP has 57 binaries, 0 generals, 0 SOSs, and 0 indicators.
Probing time =    0.00 sec.
Tried aggregator 1 time.
Presolve time =    0.06 sec.
Probing time =    0.00 sec.
Clique table members: 19.
MIP emphasis: balance optimality and feasibility.
MIP search method: dynamic search.
Parallel mode: deterministic, using up to 4 threads.
Root relaxation solution time =    0.03 sec.

        Nodes                                         Cuts/
   Node  Left     Objective  IInf  Best Integer    Best Bound    ItCnt     Gap

*     0+    0                          361.0000                      4     --- 
      0     0        cutoff            361.0000      361.0000        4    0.00%

Root node processing (before b&c):
  Real time             =    0.04
Parallel b&c, 4 threads:
  Real time             =    0.00
  Sync time (average)   =    0.00
  Wait time (average)   =    0.00
                          -------
Total (root+branch&cut) =    0.04 sec.

Solution pool: 1 solution saved.

MIP - Integer optimal solution:  Objective =  3.6100000000e+02
Solution time =    0.15 sec.  Iterations = 4  Nodes = 0
Deterministic time = 1.45 ticks  (9.64 ticks/sec)


Incumbent solution
Variable Name           Solution Value
X(0,0,0)                      1.000000
X(0,1,0)                      1.000000
X(0,2,0)                      1.000000
X(0,3,0)                      1.000000
X(0,4,0)                      1.000000
X(0,5,0)                      1.000000
X(0,6,0)                      1.000000
X(0,7,0)                      1.000000
X(0,8,0)                      1.000000
X(0,9,0)                      1.000000
X(0,10,0)                     1.000000
X(0,11,0)                     1.000000
X(0,12,0)                     1.000000
X(0,13,0)                     1.000000
X(0,14,0)                     1.000000
X(0,15,0)                     1.000000
X(0,16,0)                     1.000000
X(0,17,0)                     1.000000
X(0,18,0)                     1.000000
X(1,0,0)                      1.000000
X(1,1,0)                      1.000000
X(1,2,0)                      1.000000
X(1,3,0)                      1.000000
X(1,4,0)                      1.000000
X(1,5,0)                      1.000000
X(1,6,0)                      1.000000
X(1,7,0)                      1.000000
X(1,8,0)                      1.000000
X(1,9,0)                      1.000000
X(1,10,0)                     1.000000
X(1,11,0)                     1.000000
X(1,12,0)                     1.000000
X(1,13,0)                     1.000000
X(1,14,0)                     1.000000
X(1,15,0)                     1.000000
X(1,16,0)                     1.000000
X(1,17,0)                     1.000000
X(1,18,0)                     1.000000
X(2,0,0)                      1.000000
X(2,1,0)                      1.000000
X(2,2,0)                      1.000000
X(2,3,0)                      1.000000
X(2,4,0)                      1.000000
X(2,5,0)                      1.000000
X(2,6,0)                      1.000000
X(2,7,0)                      1.000000
X(2,8,0)                      1.000000
X(2,9,0)                      1.000000
X(2,10,0)                     1.000000
X(2,11,0)                     1.000000
X(2,12,0)                     1.000000
X(2,13,0)                     1.000000
X(2,14,0)                     1.000000
X(2,15,0)                     1.000000
X(2,16,0)                     1.000000
X(2,17,0)                     1.000000
X(2,18,0)                     1.000000
X(3,0,0)                      1.000000
X(3,1,0)                      1.000000
X(3,2,0)                      1.000000
X(3,3,0)                      1.000000
X(3,4,0)                      1.000000
X(3,5,0)                      1.000000
X(3,6,0)                      1.000000
X(3,7,0)                      1.000000
X(3,8,0)                      1.000000
X(3,9,0)                      1.000000
X(3,10,0)                     1.000000
X(3,11,0)                     1.000000
X(3,12,0)                     1.000000
X(3,13,0)                     1.000000
X(3,14,0)                     1.000000
X(3,15,0)                     1.000000
X(3,16,0)                     1.000000
X(3,17,0)                     1.000000
X(3,18,0)                     1.000000
X(4,0,0)                      1.000000
X(4,1,0)                      1.000000
X(4,2,0)                      1.000000
X(4,3,0)                      1.000000
X(4,4,0)                      1.000000
X(4,5,0)                      1.000000
X(4,6,0)                      1.000000
X(4,7,0)                      1.000000
X(4,8,0)                      1.000000
X(4,9,0)                      1.000000
X(4,10,0)                     1.000000
X(4,11,0)                     1.000000
X(4,12,0)                     1.000000
X(4,13,0)                     1.000000
X(4,14,0)                     1.000000
X(4,15,0)                     1.000000
X(4,16,0)                     1.000000
X(4,17,0)                     1.000000
X(4,18,0)                     1.000000
X(5,0,0)                      1.000000
X(5,1,0)                      1.000000
X(5,2,0)                      1.000000
X(5,3,0)                      1.000000
X(5,4,0)                      1.000000
X(5,5,0)                      1.000000
X(5,6,0)                      1.000000
X(5,7,0)                      1.000000
X(5,8,0)                      1.000000
X(5,9,0)                      1.000000
X(5,10,0)                     1.000000
X(5,11,0)                     1.000000
X(5,12,0)                     1.000000
X(5,13,0)                     1.000000
X(5,14,0)                     1.000000
X(5,15,0)                     1.000000
X(5,16,0)                     1.000000
X(5,17,0)                     1.000000
X(5,18,0)                     1.000000
X(6,0,1)                      1.000000
X(6,1,1)                      1.000000
X(6,2,1)                      1.000000
X(6,3,1)                      1.000000
X(6,4,1)                      1.000000
X(6,5,1)                      1.000000
X(6,6,1)                      1.000000
X(6,7,1)                      1.000000
X(6,8,1)                      1.000000
X(6,9,1)                      1.000000
X(6,10,1)                     1.000000
X(6,11,1)                     1.000000
X(6,12,1)                     1.000000
X(6,13,1)                     1.000000
X(6,14,1)                     1.000000
X(6,15,1)                     1.000000
X(6,16,1)                     1.000000
X(6,17,1)                     1.000000
X(6,18,1)                     1.000000
X(7,0,0)                      1.000000
X(7,1,0)                      1.000000
X(7,2,0)                      1.000000
X(7,3,0)                      1.000000
X(7,4,0)                      1.000000
X(7,5,0)                      1.000000
X(7,6,0)                      1.000000
X(7,7,0)                      1.000000
X(7,8,0)                      1.000000
X(7,9,0)                      1.000000
X(7,10,0)                     1.000000
X(7,11,0)                     1.000000
X(7,12,0)                     1.000000
X(7,13,0)                     1.000000
X(7,14,0)                     1.000000
X(7,15,0)                     1.000000
X(7,16,0)                     1.000000
X(7,17,0)                     1.000000
X(7,18,0)                     1.000000
X(8,0,1)                      1.000000
X(8,1,1)                      1.000000
X(8,2,1)                      1.000000
X(8,3,1)                      1.000000
X(8,4,1)                      1.000000
X(8,5,1)                      1.000000
X(8,6,1)                      1.000000
X(8,7,1)                      1.000000
X(8,8,1)                      1.000000
X(8,9,1)                      1.000000
X(8,10,1)                     1.000000
X(8,11,1)                     1.000000
X(8,12,1)                     1.000000
X(8,13,1)                     1.000000
X(8,14,1)                     1.000000
X(8,15,1)                     1.000000
X(8,16,1)                     1.000000
X(8,17,1)                     1.000000
X(8,18,1)                     1.000000
X(9,0,1)                      1.000000
X(9,1,1)                      1.000000
X(9,2,1)                      1.000000
X(9,3,1)                      1.000000
X(9,4,1)                      1.000000
X(9,5,1)                      1.000000
X(9,6,1)                      1.000000
X(9,7,1)                      1.000000
X(9,8,1)                      1.000000
X(9,9,1)                      1.000000
X(9,10,1)                     1.000000
X(9,11,1)                     1.000000
X(9,12,1)                     1.000000
X(9,13,1)                     1.000000
X(9,14,1)                     1.000000
X(9,15,1)                     1.000000
X(9,16,1)                     1.000000
X(9,17,1)                     1.000000
X(9,18,1)                     1.000000
X(10,0,1)                     1.000000
X(10,1,1)                     1.000000
X(10,2,1)                     1.000000
X(10,3,1)                     1.000000
X(10,4,1)                     1.000000
X(10,5,1)                     1.000000
X(10,6,1)                     1.000000
X(10,7,1)                     1.000000
X(10,8,1)                     1.000000
X(10,9,1)                     1.000000
X(10,10,1)                    1.000000
X(10,11,1)                    1.000000
X(10,12,1)                    1.000000
X(10,13,1)                    1.000000
X(10,14,1)                    1.000000
X(10,15,1)                    1.000000
X(10,16,1)                    1.000000
X(10,17,1)                    1.000000
X(10,18,1)                    1.000000
X(11,0,1)                     1.000000
X(11,1,1)                     1.000000
X(11,2,1)                     1.000000
X(11,3,1)                     1.000000
X(11,4,1)                     1.000000
X(11,5,1)                     1.000000
X(11,6,1)                     1.000000
X(11,7,1)                     1.000000
X(11,8,1)                     1.000000
X(11,9,1)                     1.000000
X(11,10,1)                    1.000000
X(11,11,1)                    1.000000
X(11,12,1)                    1.000000
X(11,13,1)                    1.000000
X(11,14,1)                    1.000000
X(11,15,1)                    1.000000
X(11,16,1)                    1.000000
X(11,17,1)                    1.000000
X(11,18,1)                    1.000000
X(12,0,1)                     1.000000
X(12,1,1)                     1.000000
X(12,2,1)                     1.000000
X(12,3,1)                     1.000000
X(12,4,1)                     1.000000
X(12,5,1)                     1.000000
X(12,6,1)                     1.000000
X(12,7,1)                     1.000000
X(12,8,1)                     1.000000
X(12,9,1)                     1.000000
X(12,10,1)                    1.000000
X(12,11,1)                    1.000000
X(12,12,1)                    1.000000
X(12,13,1)                    1.000000
X(12,14,1)                    1.000000
X(12,15,1)                    1.000000
X(12,16,1)                    1.000000
X(12,17,1)                    1.000000
X(12,18,1)                    1.000000
X(13,0,2)                     1.000000
X(13,1,2)                     1.000000
X(13,2,2)                     1.000000
X(13,3,2)                     1.000000
X(13,4,2)                     1.000000
X(13,5,2)                     1.000000
X(13,6,2)                     1.000000
X(13,7,2)                     1.000000
X(13,8,2)                     1.000000
X(13,9,2)                     1.000000
X(13,10,2)                    1.000000
X(13,11,2)                    1.000000
X(13,12,2)                    1.000000
X(13,13,2)                    1.000000
X(13,14,2)                    1.000000
X(13,15,2)                    1.000000
X(13,16,2)                    1.000000
X(13,17,2)                    1.000000
X(13,18,2)                    1.000000
X(14,0,2)                     1.000000
X(14,1,2)                     1.000000
X(14,2,2)                     1.000000
X(14,3,2)                     1.000000
X(14,4,2)                     1.000000
X(14,5,2)                     1.000000
X(14,6,2)                     1.000000
X(14,7,2)                     1.000000
X(14,8,2)                     1.000000
X(14,9,2)                     1.000000
X(14,10,2)                    1.000000
X(14,11,2)                    1.000000
X(14,12,2)                    1.000000
X(14,13,2)                    1.000000
X(14,14,2)                    1.000000
X(14,15,2)                    1.000000
X(14,16,2)                    1.000000
X(14,17,2)                    1.000000
X(14,18,2)                    1.000000
X(15,0,2)                     1.000000
X(15,1,2)                     1.000000
X(15,2,2)                     1.000000
X(15,3,2)                     1.000000
X(15,4,2)                     1.000000
X(15,5,2)                     1.000000
X(15,6,2)                     1.000000
X(15,7,2)                     1.000000
X(15,8,2)                     1.000000
X(15,9,2)                     1.000000
X(15,10,2)                    1.000000
X(15,11,2)                    1.000000
X(15,12,2)                    1.000000
X(15,13,2)                    1.000000
X(15,14,2)                    1.000000
X(15,15,2)                    1.000000
X(15,16,2)                    1.000000
X(15,17,2)                    1.000000
X(15,18,2)                    1.000000
X(16,0,2)                     1.000000
X(16,1,2)                     1.000000
X(16,2,2)                     1.000000
X(16,3,2)                     1.000000
X(16,4,2)                     1.000000
X(16,5,2)                     1.000000
X(16,6,2)                     1.000000
X(16,7,2)                     1.000000
X(16,8,2)                     1.000000
X(16,9,2)             